% demand
num_movements = 43;
loading_factor = [1750, 850, 900, 1350, 850, 900, 1000, 800, 1000, 1550, 1650, 1150, 1950, 1300, 950, 1950, 1850, 1900, 1600, 1000, 1850, 850, 1750, 850, 1700, 1000, 2000, 850, 1250, 1750, 1850, 1600, 1000, 1750, 850, 1250, 1350, 1450, 1600, 2000, 1950, 1150, 1250];
pickup_time = [0, 0, 0, 0, 0, 0, 0, 0, 0, 0, 1, 2, 2, 2, 2, 3, 3, 3, 3, 3, 3, 3, 4, 5, 5, 5, 6, 6, 6, 6, 6, 6, 6, 8, 8, 8, 8, 8, 8, 8, 9, 9, 10];
delivery_time = [1, 1, 1, 1, 1, 1, 1, 1, 1, 1, 2, 3, 3, 3, 3, 4, 6, 5, 4, 6, 5, 4, 5, 6, 6, 6, 7, 7, 8, 8, 8, 7, 7, 9, 9, 9, 9, 9, 9, 9, 11, 10, 11];

% transporter definition
total_capacity = 11000;
num_decks = 4;
capacity = [3000, 3000, 1000, 4000];

% ways out of decks
num_ways_out = 2;
paths_out = array3d(decks, ways_out, decks, [
% ways out of deck d1
2, 4, 0, 0, 3, 4, 0, 0, 

% ways out of deck d2
4, 0, 0, 0, 0, 0, 0, 0,	

% ways out of deck d3
4, 0, 0, 0, 0, 0, 0, 0,	

% ways out of deck d4
0, 0, 0, 0,	0, 0, 0, 0,	

]);

